p tw 576 2464
1 33
2 34
3 35
4 36
5 37
6 38
7 39
8 40
9 41
10 42
11 43
12 44
13 45
14 46
15 47
16 48
17 49
18 50
19 51
20 52
21 53
22 54
23 55
24 56
25 57
26 58
27 59
28 60
29 61
30 62
31 63
32 64
33 65
33 75
33 76
33 77
33 78
34 88
34 89
34 90
34 91
34 92
35 70
35 71
35 72
35 73
35 74
36 81
36 101
36 105
36 135
36 138
37 133
37 139
37 142
37 143
37 144
38 68
38 125
38 130
38 133
38 134
39 86
39 106
39 136
39 152
39 154
40 77
40 117
40 148
40 158
40 160
41 84
41 109
41 112
41 113
41 114
42 88
42 97
42 109
42 110
42 111
43 70
43 93
43 94
43 95
43 96
44 79
44 97
44 98
44 99
44 100
45 75
45 95
45 139
45 140
45 141
46 80
46 116
46 130
46 131
46 132
47 89
47 94
47 110
47 115
47 119
48 72
48 103
48 150
48 155
48 157
49 98
49 112
49 135
49 136
49 137
50 73
50 91
50 123
50 158
50 159
51 65
51 66
51 67
51 68
51 69
52 66
52 84
52 85
52 86
52 87
53 76
53 121
53 131
53 148
53 149
54 113
54 122
54 128
54 152
54 153
55 71
55 105
55 106
55 107
55 108
56 79
56 80
56 81
56 82
56 83
57 99
57 107
57 140
57 155
57 156
58 67
58 115
58 116
58 117
58 118
59 102
59 126
59 143
59 145
59 147
60 82
60 120
60 142
60 145
60 146
61 93
61 101
61 102
61 103
61 104
62 120
62 121
62 122
62 123
62 124
63 85
63 90
63 127
63 150
63 151
64 125
64 126
64 127
64 128
64 129
65 66
65 67
65 68
65 69
65 75
65 76
65 77
65 78
66 67
66 68
66 69
66 84
66 85
66 86
66 87
67 68
67 69
67 115
67 116
67 117
67 118
68 69
68 125
68 130
68 133
68 134
69 161
69 162
69 163
69 164
69 165
70 71
70 72
70 73
70 74
70 93
70 94
70 95
70 96
71 72
71 73
71 74
71 105
71 106
71 107
71 108
72 73
72 74
72 103
72 150
72 155
72 157
73 74
73 91
73 123
73 158
73 159
74 166
74 167
74 168
74 169
74 170
75 76
75 77
75 78
75 95
75 139
75 140
75 141
76 77
76 78
76 121
76 131
76 148
76 149
77 78
77 117
77 148
77 158
77 160
78 161
78 171
78 172
78 173
78 174
79 80
79 81
79 82
79 83
79 97
79 98
79 99
79 100
80 81
80 82
80 83
80 116
80 130
80 131
80 132
81 82
81 83
81 101
81 105
81 135
81 138
82 83
82 120
82 142
82 145
82 146
83 175
83 176
83 177
83 178
83 179
84 85
84 86
84 87
84 109
84 112
84 113
84 114
85 86
85 87
85 90
85 127
85 150
85 151
86 87
86 106
86 136
86 152
86 154
87 162
87 180
87 181
87 182
87 183
88 89
88 90
88 91
88 92
88 97
88 109
88 110
88 111
89 90
89 91
89 92
89 94
89 110
89 115
89 119
90 91
90 92
90 127
90 150
90 151
91 92
91 123
91 158
91 159
92 184
92 185
92 186
92 187
92 188
93 94
93 95
93 96
93 101
93 102
93 103
93 104
94 95
94 96
94 110
94 115
94 119
95 96
95 139
95 140
95 141
96 166
96 189
96 190
96 191
96 192
97 98
97 99
97 100
97 109
97 110
97 111
98 99
98 100
98 112
98 135
98 136
98 137
99 100
99 107
99 140
99 155
99 156
100 175
100 193
100 194
100 195
100 196
101 102
101 103
101 104
101 105
101 135
101 138
102 103
102 104
102 126
102 143
102 145
102 147
103 104
103 150
103 155
103 157
104 189
104 197
104 198
104 199
104 200
105 106
105 107
105 108
105 135
105 138
106 107
106 108
106 136
106 152
106 154
107 108
107 140
107 155
107 156
108 167
108 201
108 202
108 203
108 204
109 110
109 111
109 112
109 113
109 114
110 111
110 115
110 119
111 184
111 193
111 205
111 206
111 207
112 113
112 114
112 135
112 136
112 137
113 114
113 122
113 128
113 152
113 153
114 180
114 205
114 208
114 209
114 210
115 116
115 117
115 118
115 119
116 117
116 118
116 130
116 131
116 132
117 118
117 148
117 158
117 160
118 163
118 211
118 212
118 213
118 214
119 185
119 190
119 206
119 211
119 215
120 121
120 122
120 123
120 124
120 142
120 145
120 146
121 122
121 123
121 124
121 131
121 148
121 149
122 123
122 124
122 128
122 152
122 153
123 124
123 158
123 159
124 216
124 217
124 218
124 219
124 220
125 126
125 127
125 128
125 129
125 130
125 133
125 134
126 127
126 128
126 129
126 143
126 145
126 147
127 128
127 129
127 150
127 151
128 129
128 152
128 153
129 221
129 222
129 223
129 224
129 225
130 131
130 132
130 133
130 134
131 132
131 148
131 149
132 176
132 212
132 226
132 227
132 228
133 134
133 139
133 142
133 143
133 144
134 164
134 221
134 226
134 229
134 230
135 136
135 137
135 138
136 137
136 152
136 154
137 194
137 208
137 231
137 232
137 233
138 177
138 197
138 201
138 231
138 234
139 140
139 141
139 142
139 143
139 144
140 141
140 155
140 156
141 171
141 191
141 235
141 236
141 237
142 143
142 144
142 145
142 146
143 144
143 145
143 147
144 229
144 235
144 238
144 239
144 240
145 146
145 147
146 178
146 216
146 238
146 241
146 242
147 198
147 222
147 239
147 241
147 243
148 149
148 158
148 160
149 172
149 217
149 227
149 244
149 245
150 151
150 155
150 157
151 181
151 186
151 223
151 246
151 247
152 153
152 154
153 209
153 218
153 224
153 248
153 249
154 182
154 202
154 232
154 248
154 250
155 156
155 157
156 195
156 203
156 236
156 251
156 252
157 168
157 199
157 246
157 251
157 253
158 159
158 160
159 169
159 187
159 219
159 254
159 255
160 173
160 213
160 244
160 254
160 256
161 162
161 163
161 164
161 165
161 171
161 172
161 173
161 174
162 163
162 164
162 165
162 180
162 181
162 182
162 183
163 164
163 165
163 211
163 212
163 213
163 214
164 165
164 221
164 226
164 229
164 230
165 257
165 258
165 259
165 260
165 261
166 167
166 168
166 169
166 170
166 189
166 190
166 191
166 192
167 168
167 169
167 170
167 201
167 202
167 203
167 204
168 169
168 170
168 199
168 246
168 251
168 253
169 170
169 187
169 219
169 254
169 255
170 262
170 263
170 264
170 265
170 266
171 172
171 173
171 174
171 191
171 235
171 236
171 237
172 173
172 174
172 217
172 227
172 244
172 245
173 174
173 213
173 244
173 254
173 256
174 257
174 267
174 268
174 269
174 270
175 176
175 177
175 178
175 179
175 193
175 194
175 195
175 196
176 177
176 178
176 179
176 212
176 226
176 227
176 228
177 178
177 179
177 197
177 201
177 231
177 234
178 179
178 216
178 238
178 241
178 242
179 271
179 272
179 273
179 274
179 275
180 181
180 182
180 183
180 205
180 208
180 209
180 210
181 182
181 183
181 186
181 223
181 246
181 247
182 183
182 202
182 232
182 248
182 250
183 258
183 276
183 277
183 278
183 279
184 185
184 186
184 187
184 188
184 193
184 205
184 206
184 207
185 186
185 187
185 188
185 190
185 206
185 211
185 215
186 187
186 188
186 223
186 246
186 247
187 188
187 219
187 254
187 255
188 280
188 281
188 282
188 283
188 284
189 190
189 191
189 192
189 197
189 198
189 199
189 200
190 191
190 192
190 206
190 211
190 215
191 192
191 235
191 236
191 237
192 262
192 285
192 286
192 287
192 288
193 194
193 195
193 196
193 205
193 206
193 207
194 195
194 196
194 208
194 231
194 232
194 233
195 196
195 203
195 236
195 251
195 252
196 271
196 289
196 290
196 291
196 292
197 198
197 199
197 200
197 201
197 231
197 234
198 199
198 200
198 222
198 239
198 241
198 243
199 200
199 246
199 251
199 253
200 285
200 293
200 294
200 295
200 296
201 202
201 203
201 204
201 231
201 234
202 203
202 204
202 232
202 248
202 250
203 204
203 236
203 251
203 252
204 263
204 297
204 298
204 299
204 300
205 206
205 207
205 208
205 209
205 210
206 207
206 211
206 215
207 280
207 289
207 301
207 302
207 303
208 209
208 210
208 231
208 232
208 233
209 210
209 218
209 224
209 248
209 249
210 276
210 301
210 304
210 305
210 306
211 212
211 213
211 214
211 215
212 213
212 214
212 226
212 227
212 228
213 214
213 244
213 254
213 256
214 259
214 307
214 308
214 309
214 310
215 281
215 286
215 302
215 307
215 311
216 217
216 218
216 219
216 220
216 238
216 241
216 242
217 218
217 219
217 220
217 227
217 244
217 245
218 219
218 220
218 224
218 248
218 249
219 220
219 254
219 255
220 312
220 313
220 314
220 315
220 316
221 222
221 223
221 224
221 225
221 226
221 229
221 230
222 223
222 224
222 225
222 239
222 241
222 243
223 224
223 225
223 246
223 247
224 225
224 248
224 249
225 317
225 318
225 319
225 320
225 321
226 227
226 228
226 229
226 230
227 228
227 244
227 245
228 272
228 308
228 322
228 323
228 324
229 230
229 235
229 238
229 239
229 240
230 260
230 317
230 322
230 325
230 326
231 232
231 233
231 234
232 233
232 248
232 250
233 290
233 304
233 327
233 328
233 329
234 273
234 293
234 297
234 327
234 330
235 236
235 237
235 238
235 239
235 240
236 237
236 251
236 252
237 267
237 287
237 331
237 332
237 333
238 239
238 240
238 241
238 242
239 240
239 241
239 243
240 325
240 331
240 334
240 335
240 336
241 242
241 243
242 274
242 312
242 334
242 337
242 338
243 294
243 318
243 335
243 337
243 339
244 245
244 254
244 256
245 268
245 313
245 323
245 340
245 341
246 247
246 251
246 253
247 277
247 282
247 319
247 342
247 343
248 249
248 250
249 305
249 314
249 320
249 344
249 345
250 278
250 298
250 328
250 344
250 346
251 252
251 253
252 291
252 299
252 332
252 347
252 348
253 264
253 295
253 342
253 347
253 349
254 255
254 256
255 265
255 283
255 315
255 350
255 351
256 269
256 309
256 340
256 350
256 352
257 258
257 259
257 260
257 261
257 267
257 268
257 269
257 270
258 259
258 260
258 261
258 276
258 277
258 278
258 279
259 260
259 261
259 307
259 308
259 309
259 310
260 261
260 317
260 322
260 325
260 326
261 353
261 354
261 355
261 356
261 357
262 263
262 264
262 265
262 266
262 285
262 286
262 287
262 288
263 264
263 265
263 266
263 297
263 298
263 299
263 300
264 265
264 266
264 295
264 342
264 347
264 349
265 266
265 283
265 315
265 350
265 351
266 358
266 359
266 360
266 361
266 362
267 268
267 269
267 270
267 287
267 331
267 332
267 333
268 269
268 270
268 313
268 323
268 340
268 341
269 270
269 309
269 340
269 350
269 352
270 353
270 363
270 364
270 365
270 366
271 272
271 273
271 274
271 275
271 289
271 290
271 291
271 292
272 273
272 274
272 275
272 308
272 322
272 323
272 324
273 274
273 275
273 293
273 297
273 327
273 330
274 275
274 312
274 334
274 337
274 338
275 367
275 368
275 369
275 370
275 371
276 277
276 278
276 279
276 301
276 304
276 305
276 306
277 278
277 279
277 282
277 319
277 342
277 343
278 279
278 298
278 328
278 344
278 346
279 354
279 372
279 373
279 374
279 375
280 281
280 282
280 283
280 284
280 289
280 301
280 302
280 303
281 282
281 283
281 284
281 286
281 302
281 307
281 311
282 283
282 284
282 319
282 342
282 343
283 284
283 315
283 350
283 351
284 376
284 377
284 378
284 379
284 380
285 286
285 287
285 288
285 293
285 294
285 295
285 296
286 287
286 288
286 302
286 307
286 311
287 288
287 331
287 332
287 333
288 358
288 381
288 382
288 383
288 384
289 290
289 291
289 292
289 301
289 302
289 303
290 291
290 292
290 304
290 327
290 328
290 329
291 292
291 299
291 332
291 347
291 348
292 367
292 385
292 386
292 387
292 388
293 294
293 295
293 296
293 297
293 327
293 330
294 295
294 296
294 318
294 335
294 337
294 339
295 296
295 342
295 347
295 349
296 381
296 389
296 390
296 391
296 392
297 298
297 299
297 300
297 327
297 330
298 299
298 300
298 328
298 344
298 346
299 300
299 332
299 347
299 348
300 359
300 393
300 394
300 395
300 396
301 302
301 303
301 304
301 305
301 306
302 303
302 307
302 311
303 376
303 385
303 397
303 398
303 399
304 305
304 306
304 327
304 328
304 329
305 306
305 314
305 320
305 344
305 345
306 372
306 397
306 400
306 401
306 402
307 308
307 309
307 310
307 311
308 309
308 310
308 322
308 323
308 324
309 310
309 340
309 350
309 352
310 355
310 403
310 404
310 405
310 406
311 377
311 382
311 398
311 403
311 407
312 313
312 314
312 315
312 316
312 334
312 337
312 338
313 314
313 315
313 316
313 323
313 340
313 341
314 315
314 316
314 320
314 344
314 345
315 316
315 350
315 351
316 408
316 409
316 410
316 411
316 412
317 318
317 319
317 320
317 321
317 322
317 325
317 326
318 319
318 320
318 321
318 335
318 337
318 339
319 320
319 321
319 342
319 343
320 321
320 344
320 345
321 413
321 414
321 415
321 416
321 417
322 323
322 324
322 325
322 326
323 324
323 340
323 341
324 368
324 404
324 418
324 419
324 420
325 326
325 331
325 334
325 335
325 336
326 356
326 413
326 418
326 421
326 422
327 328
327 329
327 330
328 329
328 344
328 346
329 386
329 400
329 423
329 424
329 425
330 369
330 389
330 393
330 423
330 426
331 332
331 333
331 334
331 335
331 336
332 333
332 347
332 348
333 363
333 383
333 427
333 428
333 429
334 335
334 336
334 337
334 338
335 336
335 337
335 339
336 421
336 427
336 430
336 431
336 432
337 338
337 339
338 370
338 408
338 430
338 433
338 434
339 390
339 414
339 431
339 433
339 435
340 341
340 350
340 352
341 364
341 409
341 419
341 436
341 437
342 343
342 347
342 349
343 373
343 378
343 415
343 438
343 439
344 345
344 346
345 401
345 410
345 416
345 440
345 441
346 374
346 394
346 424
346 440
346 442
347 348
347 349
348 387
348 395
348 428
348 443
348 444
349 360
349 391
349 438
349 443
349 445
350 351
350 352
351 361
351 379
351 411
351 446
351 447
352 365
352 405
352 436
352 446
352 448
353 354
353 355
353 356
353 357
353 363
353 364
353 365
353 366
354 355
354 356
354 357
354 372
354 373
354 374
354 375
355 356
355 357
355 403
355 404
355 405
355 406
356 357
356 413
356 418
356 421
356 422
357 449
357 450
357 451
357 452
357 453
358 359
358 360
358 361
358 362
358 381
358 382
358 383
358 384
359 360
359 361
359 362
359 393
359 394
359 395
359 396
360 361
360 362
360 391
360 438
360 443
360 445
361 362
361 379
361 411
361 446
361 447
362 454
362 455
362 456
362 457
362 458
363 364
363 365
363 366
363 383
363 427
363 428
363 429
364 365
364 366
364 409
364 419
364 436
364 437
365 366
365 405
365 436
365 446
365 448
366 449
366 459
366 460
366 461
366 462
367 368
367 369
367 370
367 371
367 385
367 386
367 387
367 388
368 369
368 370
368 371
368 404
368 418
368 419
368 420
369 370
369 371
369 389
369 393
369 423
369 426
370 371
370 408
370 430
370 433
370 434
371 463
371 464
371 465
371 466
371 467
372 373
372 374
372 375
372 397
372 400
372 401
372 402
373 374
373 375
373 378
373 415
373 438
373 439
374 375
374 394
374 424
374 440
374 442
375 450
375 468
375 469
375 470
375 471
376 377
376 378
376 379
376 380
376 385
376 397
376 398
376 399
377 378
377 379
377 380
377 382
377 398
377 403
377 407
378 379
378 380
378 415
378 438
378 439
379 380
379 411
379 446
379 447
380 472
380 473
380 474
380 475
380 476
381 382
381 383
381 384
381 389
381 390
381 391
381 392
382 383
382 384
382 398
382 403
382 407
383 384
383 427
383 428
383 429
384 454
384 477
384 478
384 479
384 480
385 386
385 387
385 388
385 397
385 398
385 399
386 387
386 388
386 400
386 423
386 424
386 425
387 388
387 395
387 428
387 443
387 444
388 463
388 481
388 482
388 483
388 484
389 390
389 391
389 392
389 393
389 423
389 426
390 391
390 392
390 414
390 431
390 433
390 435
391 392
391 438
391 443
391 445
392 477
392 485
392 486
392 487
392 488
393 394
393 395
393 396
393 423
393 426
394 395
394 396
394 424
394 440
394 442
395 396
395 428
395 443
395 444
396 455
396 489
396 490
396 491
396 492
397 398
397 399
397 400
397 401
397 402
398 399
398 403
398 407
399 472
399 481
399 493
399 494
399 495
400 401
400 402
400 423
400 424
400 425
401 402
401 410
401 416
401 440
401 441
402 468
402 493
402 496
402 497
402 498
403 404
403 405
403 406
403 407
404 405
404 406
404 418
404 419
404 420
405 406
405 436
405 446
405 448
406 451
406 499
406 500
406 501
406 502
407 473
407 478
407 494
407 499
407 503
408 409
408 410
408 411
408 412
408 430
408 433
408 434
409 410
409 411
409 412
409 419
409 436
409 437
410 411
410 412
410 416
410 440
410 441
411 412
411 446
411 447
412 504
412 505
412 506
412 507
412 508
413 414
413 415
413 416
413 417
413 418
413 421
413 422
414 415
414 416
414 417
414 431
414 433
414 435
415 416
415 417
415 438
415 439
416 417
416 440
416 441
417 509
417 510
417 511
417 512
417 513
418 419
418 420
418 421
418 422
419 420
419 436
419 437
420 464
420 500
420 514
420 515
420 516
421 422
421 427
421 430
421 431
421 432
422 452
422 509
422 514
422 517
422 518
423 424
423 425
423 426
424 425
424 440
424 442
425 482
425 496
425 519
425 520
425 521
426 465
426 485
426 489
426 519
426 522
427 428
427 429
427 430
427 431
427 432
428 429
428 443
428 444
429 459
429 479
429 523
429 524
429 525
430 431
430 432
430 433
430 434
431 432
431 433
431 435
432 517
432 523
432 526
432 527
432 528
433 434
433 435
434 466
434 504
434 526
434 529
434 530
435 486
435 510
435 527
435 529
435 531
436 437
436 446
436 448
437 460
437 505
437 515
437 532
437 533
438 439
438 443
438 445
439 469
439 474
439 511
439 534
439 535
440 441
440 442
441 497
441 506
441 512
441 536
441 537
442 470
442 490
442 520
442 536
442 538
443 444
443 445
444 483
444 491
444 524
444 539
444 540
445 456
445 487
445 534
445 539
445 541
446 447
446 448
447 457
447 475
447 507
447 542
447 543
448 461
448 501
448 532
448 542
448 544
449 450
449 451
449 452
449 453
449 459
449 460
449 461
449 462
450 451
450 452
450 453
450 468
450 469
450 470
450 471
451 452
451 453
451 499
451 500
451 501
451 502
452 453
452 509
452 514
452 517
452 518
453 558
454 455
454 456
454 457
454 458
454 477
454 478
454 479
454 480
455 456
455 457
455 458
455 489
455 490
455 491
455 492
456 457
456 458
456 487
456 534
456 539
456 541
457 458
457 475
457 507
457 542
457 543
458 574
459 460
459 461
459 462
459 479
459 523
459 524
459 525
460 461
460 462
460 505
460 515
460 532
460 533
461 462
461 501
461 532
461 542
461 544
462 576
463 464
463 465
463 466
463 467
463 481
463 482
463 483
463 484
464 465
464 466
464 467
464 500
464 514
464 515
464 516
465 466
465 467
465 485
465 489
465 519
465 522
466 467
466 504
466 526
466 529
466 530
467 553
468 469
468 470
468 471
468 493
468 496
468 497
468 498
469 470
469 471
469 474
469 511
469 534
469 535
470 471
470 490
470 520
470 536
470 538
471 557
472 473
472 474
472 475
472 476
472 481
472 493
472 494
472 495
473 474
473 475
473 476
473 478
473 494
473 499
473 503
474 475
474 476
474 511
474 534
474 535
475 476
475 507
475 542
475 543
476 575
477 478
477 479
477 480
477 485
477 486
477 487
477 488
478 479
478 480
478 494
478 499
478 503
479 480
479 523
479 524
479 525
480 566
481 482
481 483
481 484
481 493
481 494
481 495
482 483
482 484
482 496
482 519
482 520
482 521
483 484
483 491
483 524
483 539
483 540
484 565
485 486
485 487
485 488
485 489
485 519
485 522
486 487
486 488
486 510
486 527
486 529
486 531
487 488
487 534
487 539
487 541
488 548
489 490
489 491
489 492
489 519
489 522
490 491
490 492
490 520
490 536
490 538
491 492
491 524
491 539
491 540
492 554
493 494
493 495
493 496
493 497
493 498
494 495
494 499
494 503
495 567
496 497
496 498
496 519
496 520
496 521
497 498
497 506
497 512
497 536
497 537
498 568
499 500
499 501
499 502
499 503
500 501
500 502
500 514
500 515
500 516
501 502
501 532
501 542
501 544
502 551
503 562
504 505
504 506
504 507
504 508
504 526
504 529
504 530
505 506
505 507
505 508
505 515
505 532
505 533
506 507
506 508
506 512
506 536
506 537
507 508
507 542
507 543
508 547
509 510
509 511
509 512
509 513
509 514
509 517
509 518
510 511
510 512
510 513
510 527
510 529
510 531
511 512
511 513
511 534
511 535
512 513
512 536
512 537
513 545
514 515
514 516
514 517
514 518
515 516
515 532
515 533
516 563
517 518
517 523
517 526
517 527
517 528
518 571
519 520
519 521
519 522
520 521
520 536
520 538
521 560
522 573
523 524
523 525
523 526
523 527
523 528
524 525
524 539
524 540
525 564
526 527
526 528
526 529
526 530
527 528
527 529
527 531
528 572
529 530
529 531
530 549
531 550
532 533
532 542
532 544
533 556
534 535
534 539
534 541
535 546
536 537
536 538
537 555
538 570
539 540
539 541
540 552
541 561
542 543
542 544
543 559
544 569
